     60      2     22    346     20
     39     45
     40     24      5      2     28     26     36      3     51     54     41     58     54     22     31     48     59     20     27      5     15     15     27     22      7     20     55     15     37      1      9     52     50     40     15     13      3     43     48     40     54     58     19     30     13     21     18     19     35      7      5     42     47     40      5     32     10     15     29     18     40     51     57     36     34     53     26     12     23     15     30     34     58     23     21     46     52     47     37     44     14     26     12     52     31     12     18     53     32     10      2     38     15     54     55     24     47     14     39     25     45     59     18     21      9     10     19     47     41     32      6     19     58     54     52     30     53     39      6     46     41     30     52     21     42      2     27     21     55      7      9     10      2     31     53      1     10     14     50     21     49     34     42     45     24     31      5     26     47      7     51     35     50      9     16     14     59     14     28     15     32     56     17     37     52     18     28     26     38     14     28     23     22     42     41     29      2     17     25     31      0     42     37     55     28      4      2     30      2     14     55     37     48     35     14     58      6     15     12     49     44     36     13     28     20      4     35     57     23     49     59     44     19     33      7     57     56      7     21     29     28     27     25     51     37     10     32     48     13     35      3     15     50     46      8     32     37     25     28     26     58     16     42     39     18     58     59     17     33     28     46     33      2     32     31     14     39     17     56     16      3     42     22     14     13     31      4      8      3     54      5     28     12     37     29     13      2     19     26     45     24     42     53     19     43     15     18     17     26     37     13     30     19     15     56     11     57     22     16     12     57     59     56     32      3     33     28     12      4      5     21     51     27     29     22      0     59     33      4     24      9     20     48     54     40     15      5     51      0      9     21      6     10     54     33      2     49     48     25      6     45      0     43     41     16     46      5      3     23     57      6     13     27     38     42     22      1     49     20     34     32     13     31     17     23     19     55     56     48     16     20     54     38     41     50     58     41     46     14      1     16     38     30     18     52     40     26     33     10     39     58     34     29      5     38     14     22     12     32     26     30     37     22     21      0     40      8     48      3     58     28     59     30     11     41     37     20     16      9     42     31     27     13     51     22     46      2     19     10     50     27     58      2      5     36      4     41      0     24     13     28     17     56     55     14     44     35     33     16     59     30     21     57      2     39     56     19     51      5     20     33     26     11     53     13      6     59     29     32     56     41     15      8     20     34     52     26     25     11     57     58     59     35     18      3     39     57     53     46     37     57     52      8     55     53     31     11      3     44     51     21     45     13     18     55     34     39      6     56     52     32     56      8      5      2     23     43     18     34      9
     42     94     82    -29     34     80    -27    -33     60    160     78    -21    131     83    144    151    -28     50     61    156    130     25     71     57     21     37     14    106     51     95     82     18     62     24      4     23     18      5    -16     38    -18     33    -14     -9     33    -13     64     59     53     19     15     56     36     56     29     38     54     37     85     47     -4     -9     82     53     87     31     32     57     53     29     41     80     65    -14     45     76     14     83     60     48
     12     12     12	    455    296     21     21      7      0      0      0    300      0      0      0      0      0      0      0      0      0      0      0      0    289      0      0      0      0      0      0      0    189      0      0      0      2      0      0      0      0      0      0     11      0      0      0    197      0      0      0      0      0      0      0      0      5      0    202      0      0      0      0      0      0      0      0    155
      6     12     13	    298    102     19     19      5      0      0      0      0      0     87      0      0      0    166      0      0    123      0      0      0      0      0      0      0     55      0    152    164      0      0      0      0      0    -36      0      0      0    236     86     76      0      0      0      0      0      0      0      0      0      0     36      0      0      0      0      0      0      0      0      0      0      0      0      0
     10     12     15	    355    142     19     21      5      0      0      0      0      0    -15      0      0     32      0      0    -29      0      0      0      0      0      0      0     37      0      0      0      0      0      0      0      0      0      0     -2      0      0      0      0      0     92      0      0      0      0      0      0      0      0    -30    -26      0     77      0      0      0     87      0    116      0      0     20      0      0
      7     11     13	    484    243     12     12      4    300      0      0      0     80      0    -30      0      0      0      0      0      0      0      0    148      0      0      0      0      0      0      0      0      0      0      0      0    123    199      0      0      0      0      0      0      0      0      0      0      0      0      0      0      0      0      0      0      0      0      0     -3      0      0      0      0      0      0      0    127
      6     11     13	    123     54     19     21      1      0      0      0     80      0    -20      0    -19     13      0      0     12      0     35     95      0      0      0      0      0      0      0      0      0      0      0      0      0      0      0      0      0      0      0      0      0     15     27      0      0      0      0      0      0      0      0      0      0      0      0      0    -14      0      0      0    -10      0      0      0      0
     10     12     12	    112     65     11     11      8      0     87    -15      0    -20      0     10      0     74      0      0      0      0      0      0      0      0      0      0      0      0      0      0      0     66      0      0      0     86      0      0     21      0      0      0      0     55      0      0      0      0      0      0    -17     19      0     34     38      0      0      0      0      0      0      0      0     27      0     80      4
      9     14     11	    224    128     14     20      5      0      0      0    -30      0     10      0      0      0      0      0      0      0      0      0      0    -32      0      0     36      0      0      0      0    150     35      0      0      0      0      0     75      0      0      0      0      0      0      0      0      0      0     41      0      0     75     99    168      0      0      0     87      0      0      0     40      0     20    -18      0
      7     13     11	    235    134     22     22      5      0      0      0      0    -19      0      0      0    -30      0      0      0      0      0      0      0      0      0      0      0      0      0      0      0      0     36      0      0      0      0      0      3    166      0      0      0      0     15      0      0      0     11      0      0      0      0    183      0     43    -24      0      0      0      0      9      0      0      0      0      0
      9     12     11	    301    201     19     21      2      0      0     32      0     13     74      0    -30      0      0      0      0      0      0      0      0     51     94      0      0      0      0      0      0      0      0      0      0      0      0      0      0      0      0      0    105      0      0      0      0      0      0      0      0      0      0      0      0      0      3      0      0      0      0      0    236      0      0    150      0
      6     13     14	    369    183     10     20      7      0    166      0      0      0      0      0      0      0      0      0      0      0      0      0    188      0      0      0      0      0      0      0      0      0      0      0      0      0      0      0      0    197      0    192      0      0    -28    165      0     16      0      0     52      0     98     93      0      0    165      0    140      0      0      0      0      0      0      0      7
      9     13     13	    500    250     10     18      2      0      0      0      0      0      0      0      0      0      0      0      0      0      0      0      0      0     13      0      0    -26     25      0      0      0      0     80      0      0      0      0      0     61      0      0      0      0      0      0      0      0      0     47      0      0     38      0      0      0      0      0     71      0      0      0      0      0      0      0      0
      6     15     15	    499    303     10     20      4      0      0    -29      0     12      0      0      0      0      0      0      0     45      0      0      0      0      0      0      0      0      0      0      0    145     87      0      0      0    243      0      0      0      0      0      0      0     19    288      0      0      0    156      0      0      0      0      0      0      0      0      0    324     43      0      0      0      0      0      0
      7     12     10	    414    174     14     17      8      0    123      0      0      0      0      0      0      0      0      0     45      0      0      0    151      0      0      0      0      0      0      0      0      0      0      0      0      0      0      0      0     65      3     95    275      0     59    229     -1      0      0      0      0      0      0      0      0      0      0    170      0      0      0      0      0      0    143      0      0
     10     10     10	    486    208     22     22      4      0      0      0      0     35      0      0      0      0      0      0      0      0      0      0      0      0      0    -32      0      0      0      0      0      0      0      0    -26      0      0      0      0     67      0      0      0     35      0      0      0     81      0    120      0      0      0      0      0     14      0    -57      0      0      0      0      0      0    182      0      0
      7     15     11	    368    231     16     16      8      0      0      0      0     95      0      0      0      0      0      0      0      0      0      0      0    180      0      0      0      0      0      0      0      0      0      0      0      0      0      0      0      0      0      0      0      0      0     90    229      0      0      0      0      0      0      0      0      0    -17      0     74      0     39    115    -17      0      0      0      0
     11     11     13	    494    297     18     19     10      0      0      0    148      0      0      0      0      0    188      0      0    151      0      0      0      0      0      0      0      0      0      0      0    -49      0      0      0      0    -49      0      0      0      0      0      0      0      0      0      0      0      0      0      0      0     81      0      0      0     50      0      0      0      0     20      0      0      0      0      0
     12     10     13	    437    173     22     22      4    289      0      0      0      0      0    -32      0     51      0      0      0      0      0    180      0      0      0      0     -8      0      0      0    122      0    157      8      0      0      0      0      0    -14      0      0      0      0      0    309    -15      0    -52      0      0      0     25      0      0      0      0      0      0    109      0      0     92      0      0      0      0
      8     11     15	    188     75     18     21      1      0      0      0      0      0      0      0      0     94      0     13      0      0      0      0      0      0      0      0      0      0      0      0      0      0      0      0      0      0      0      0      0      0      0      0      0     79      0      0    104      0      0      0      0     41      0     59      0      0      0      0     65      0      0      0      0    135    140      0      0
     10     10     14	    277    119     10     10      6      0      0      0      0      0      0      0      0      0      0      0      0      0    -32      0      0      0      0      0      0     45      0      0      0      0      0      0      0      0      0      0      0      0    152      0      0      0      0     98      0    176    169      0      0      0      0      0      0      0    109      0      0      0      0      0    -39      0    186      0      0
      6     13     15	    100     52     11     14      9      0      0     37      0      0      0     36      0      0      0      0      0      0      0      0      0     -8      0      0      0      0      0      0      0     37     73     20      0      0      0      0      0      0      0      0     -2      0      0     65    -17      0      0     73     -4      0     40      0      0      0      0      0     79      0      0      0     71      0      0      0      0
      6     14     14	    185     55     20     22      4      0     55      0      0      0      0      0      0      0      0    -26      0      0      0      0      0      0      0     45      0      0      0      0    112      0      0      0      0      0      0      0     89      0      0      0     32      0     71      0      0      0      0      0      0      0      0      0      0      0      0    -17      0      0     71      0    -14    137      0      0      0
      6     15     10	    364     88     18     19      2      0      0      0      0      0      0      0      0      0      0     25      0      0      0      0      0      0      0      0      0      0      0      0      0      0      0      0      0      0      0      0      0      0      0      0      0    142      0      0      0      0      0      0     61      0      0      0      0      0      0      0      0      0    -18      0      0      0      0      0      0
     10     14     10	    366     72     10     17      2      0    152      0      0      0      0      0      0      0      0      0      0      0      0      0      0      0      0      0      0      0      0      0      0      0      0      0    272      0      0      0      0      0      0     73     27      0      0      0    226      0      0      0      0      0      0      0      0      0    247      0      0      0      0      0      0      0      0      0      0
      7     15     13	    255     82      8     18     10      0    164      0      0      0      0      0      0      0      0      0      0      0      0      0      0    122      0      0      0    112      0      0      0      0      0      0      0      0      0      0    -35      0      0      0      0      0      0     98      0      0      0      0      0      0      0     12      0      0      0      0      0      0      0      0      0      0      0     73    147
     11     15     10	    267    153     18     18      7    189      0      0      0      0     66    150      0      0      0      0    145      0      0      0    -49      0      0      0     37      0      0      0      0      0      0      0      0      0      0      0    -43      0      0      0      0      0      0      0      0      0      0     54      0      0      0      0      0      0      0      0      0      0      0      0    105      0     36      0      0
     11     10     15	    215     69     14     19      9      0      0      0      0      0      0     35     36      0      0      0     87      0      0      0      0    157      0      0     73      0      0      0      0      0      0      0      0      0      0    159      0      0      0      0     59      0      0      0      0      0      0      0      0      0      0      0      0      0      0      0      0      0      0      0    144      0      0      0      0
      8     15     15	    119     77     12     16      7      0      0      0      0      0      0      0      0      0      0     80      0      0      0      0      0      8      0      0     20      0      0      0      0      0      0      0      0      0      2      0      0      0      0      0      0      0     19     52      0      0     -5    -23      0      0      0      0      0     77      0      0      0      0    -19      0      0     29      0      0      0
     10     12     14	    377    207     14     17      5      0      0      0      0      0      0      0      0      0      0      0      0      0    -26      0      0      0      0      0      0      0      0    272      0      0      0      0      0      0      0    239      0      0      0      0      0      0      0      0      0      0      0      0      0      0      0      0    131     59      0      0      0      0      0      0      0      0      0      0     26
      7     14     11	    330    104     10     15      4      2      0      0    123      0     86      0      0      0      0      0      0      0      0      0      0      0      0      0      0      0      0      0      0      0      0      0      0      0      0      0      0      0      0      0     62      0      0    216      0      0    261      0      0     90      0     40      0      0      0      0      0      0    -11      0     45      0      0    178    140
      7     10     12	    322    201     17     20      2      0    -36      0    199      0      0      0      0      0      0      0    243      0      0      0    -49      0      0      0      0      0      0      0      0      0      0      2      0      0      0      0      0      0    -31      0      0    114      0      0      0      0      0      0      0    119     30      0      0      0      0     36      0      0      0      0      0      0      0      0     14
     12     10     13	    386     66     19     19     10      0      0     -2      0      0      0      0      0      0      0      0      0      0      0      0      0      0      0      0      0      0      0      0      0      0    159      0    239      0      0      0      0      0      0      0      0    161      0      0      0      0      0      0      0     95      0      0      0      0      0     30      0      0     77      0      0      0      0      0      0
      7     12     12	    362     84     17     19      7      0      0      0      0      0     21     75      3      0      0      0      0      0      0      0      0      0      0      0      0     89      0      0    -35    -43      0      0      0      0      0      0      0      0      0      0    178      0      0      0    176      0      0      0      0      0      0      0      0      0      0      0      0      0      0      0      0     64    159      0    -20
      8     12     12	    271     97     16     18      5      0      0      0      0      0      0      0    166      0    197     61      0     65     67      0      0    -14      0      0      0      0      0      0      0      0      0      0      0      0      0      0      0      0      0      0      0      0      0    -29      0      0      0      0     52      0      0     56      0      0      0      0      0    142      0      0      0      0    159      0      0
     10     15     11	    429     76     12     20      9      0    236      0      0      0      0      0      0      0      0      0      0      3      0      0      0      0      0    152      0      0      0      0      0      0      0      0      0      0    -31      0      0      0      0      0    207      0      0      0    188      0     40      0    156      0      0      0      0    184      0      0     99      0     39      0      0    -33      0      0      0
     11     14     14	    423     82     11     22      2      0     86      0      0      0      0      0      0      0    192      0      0     95      0      0      0      0      0      0      0      0      0     73      0      0      0      0      0      0      0      0      0      0      0      0      0      0      0      0      0      0      0      0      0      0      0      0      0      0    111      1      0    104      0      0      0      7      0      0      0
     11     10     10	    407    272     20     20      2     11     76      0      0      0      0      0      0    105      0      0      0    275      0      0      0      0      0      0     -2     32      0     27      0      0     59      0      0     62      0      0    178      0    207      0      0      0      0      0      0      0      0      0    -24      0      0      0     81      0      0      0      0      0      0      0      0      0      0      0      0
      9     12     14	    359    122     14     16      6      0      0     92      0     15     55      0      0      0      0      0      0      0     35      0      0      0     79      0      0      0    142      0      0      0      0      0      0      0    114    161      0      0      0      0      0      0      0     -5      0      0      0      0     77      0     25      0      0      0      0      0      0      0     70      0    257      0      0      0      0
      8     13     11	    351    166      9     21      2      0      0      0      0     27      0      0     15      0    -28      0     19     59      0      0      0      0      0      0      0     71      0      0      0      0      0     19      0      0      0      0      0      0      0      0      0      0      0      0      0      0      0    114      0      0      0      0      0      0    212      0      0      0      0      0      0      0    152      7      0
     12     11     13	    452    209     19     22      7      0      0      0      0      0      0      0      0      0    165      0    288    229      0     90      0    309      0     98     65      0      0      0     98      0      0     52      0    216      0      0      0    -29      0      0      0     -5      0      0      0      0      0     -4      0      0      0     87      0      0      0      0     97      0      5      0      0      0      0      0      8
      8     14     10	    311    204      8     15      8    197      0      0      0      0      0      0      0      0      0      0      0     -1      0    229      0    -15    104      0    -17      0      0    226      0      0      0      0      0      0      0      0    176      0    188      0      0      0      0      0      0      0     45      0     25      0     81      0     -5      0      0      0      0      0      0     21      0      0      0      0      0
     11     13     13	    295    174     12     14      7      0      0      0      0      0      0      0      0      0     16      0      0      0     81      0      0      0      0    176      0      0      0      0      0      0      0      0      0      0      0      0      0      0      0      0      0      0      0      0      0      0      0      0      6      0      0    220      0      0      0      0      0      0      0      0      0      0    219      0      0
     12     10     10	    338    186     16     20      5      0      0      0      0      0      0      0     11      0      0      0      0      0      0      0      0    -52      0    169      0      0      0      0      0      0      0     -5      0    261      0      0      0      0     40      0      0      0      0      0     45      0      0      0      0     57      0     -8      0      0      0      0      0      0     19      0      0      0      0      0      0
     12     10     15	    204     57     15     18      3      0      0      0      0      0      0     41      0      0      0     47    156      0    120      0      0      0      0      0     73      0      0      0      0     54      0    -23      0      0      0      0      0      0      0      0      0      0    114     -4      0      0      0      0     39      0      0      0      0      0      0      0      0      0      0      0      0      0      0      0      0
     12     12     10	    196     85     15     22     10      0      0      0      0      0    -17      0      0      0     52      0      0      0      0      0      0      0      0      0     -4      0     61      0      0      0      0      0      0      0      0      0      0     52    156      0    -24     77      0      0     25      6      0     39      0    151    111      0      0      0      0      0    150      0      0      0      0    -25      0    112    140
     12     15     12	    298    128     21     21      6      0      0      0      0      0     19      0      0      0      0      0      0      0      0      0      0      0     41      0      0      0      0      0      0      0      0      0      0     90    119     95      0      0      0      0      0      0      0      0      0      0     57      0    151      0      0      0      0    -35    180      0      0      0      0      0      0      0      0     48      0
     12     14     14	    162     84     14     17      3      0      0    -30      0      0      0     75      0      0     98     38      0      0      0      0     81     25      0      0     40      0      0      0      0      0      0      0      0      0     30      0      0      0      0      0      0     25      0      0     81      0      0      0    111      0      0     49      0      0      0      0      8      0      0      0      0      0     66      0     19
     11     11     15	    288     95     11     11      3      0     36    -26      0      0     34     99    183      0     93      0      0      0      0      0      0      0     59      0      0      0      0      0     12      0      0      0      0     40      0      0      0     56      0      0      0      0      0     87      0    220     -8      0      0      0     49      0      0      0      9      0      0      0      0      0      0      0      0      0      0
     12     13     15	    404    210     19     20      6      0      0      0      0      0     38    168      0      0      0      0      0      0      0      0      0      0      0      0      0      0      0      0      0      0      0      0    131      0      0      0      0      0      0      0     81      0      0      0     -5      0      0      0      0      0      0      0      0      0      0      0     56      0      0      0      0      0    182      0      5
      7     14     11	    289    133     12     16     10      5      0     77      0      0      0      0     43      0      0      0      0      0     14      0      0      0      0      0      0      0      0      0      0      0      0     77     59      0      0      0      0      0    184      0      0      0      0      0      0      0      0      0      0    -35      0      0      0      0      0      0      0    -38      0      0      0      0    -13    186      0
      7     11     14	    377     74     22     22      7      0      0      0      0      0      0      0    -24      3    165      0      0      0      0    -17     50      0      0    109      0      0      0    247      0      0      0      0      0      0      0      0      0      0      0    111      0      0    212      0      0      0      0      0      0    180      0      9      0      0      0    196      0      0      0     35      0      0      0    100      0
      9     12     10	    434    258     18     21      2    202      0      0      0      0      0      0      0      0      0      0      0    170    -57      0      0      0      0      0      0    -17      0      0      0      0      0      0      0      0     36     30      0      0      0      1      0      0      0      0      0      0      0      0      0      0      0      0      0      0    196      0      0      6    -19      0      0     -3      0    146      0
     12     10     12	    201     88     19     22      3      0      0      0     -3    -14      0     87      0      0    140     71      0      0      0     74      0      0     65      0     79      0      0      0      0      0      0      0      0      0      0      0      0      0     99      0      0      0      0     97      0      0      0      0    150      0      8      0     56      0      0      0      0      0     55    100      0    134      0      0      0
     12     14     13	    480    167     19     21      3      0      0     87      0      0      0      0      0      0      0      0    324      0      0      0      0    109      0      0      0      0      0      0      0      0      0      0      0      0      0      0      0    142      0    104      0      0      0      0      0      0      0      0      0      0      0      0      0    -38      0      6      0      0      0     17      0      0      0    166      0
      7     13     15	    124     76     13     19      4      0      0      0      0      0      0      0      0      0      0      0     43      0      0     39      0      0      0      0      0     71    -18      0      0      0      0    -19      0    -11      0     77      0      0     39      0      0     70      0      5      0      0     19      0      0      0      0      0      0      0      0    -19     55      0      0      0      0      0      0    -20     91
      9     13     11	    186     97     20     20      7      0      0    116      0      0      0      0      9      0      0      0      0      0      0    115     20      0      0      0      0      0      0      0      0      0      0      0      0      0      0      0      0      0      0      0      0      0      0      0     21      0      0      0      0      0      0      0      0      0     35      0    100     17      0      0      0      0      0    124      0
      9     13     14	    387     58     18     22      9      0      0      0      0    -10      0     40      0    236      0      0      0      0      0    -17      0     92      0    -39     71    -14      0      0      0    105    144      0      0     45      0      0      0      0      0      0      0    257      0      0      0      0      0      0      0      0      0      0      0      0      0      0      0      0      0      0      0     83      0    -39      0
      6     15     12	    436    203     20     22      8      0      0      0      0      0     27      0      0      0      0      0      0      0      0      0      0      0    135      0      0    137      0      0      0      0      0     29      0      0      0      0     64      0    -33      7      0      0      0      0      0      0      0      0    -25      0      0      0      0      0      0     -3    134      0      0      0     83      0      0      0      0
      6     10     15	    284     54     21     22      6      0      0     20      0      0      0     20      0      0      0      0      0    143    182      0      0      0    140    186      0      0      0      0      0     36      0      0      0      0      0      0    159    159      0      0      0      0    152      0      0    219      0      0      0      0     66      0    182    -13      0      0      0      0      0      0      0      0      0      0      0
      7     13     11	    282    191      9     17      8      0      0      0      0      0     80    -18      0    150      0      0      0      0      0      0      0      0      0      0      0      0      0      0     73      0      0      0      0    178      0      0      0      0      0      0      0      0      7      0      0      0      0      0    112     48      0      0      0    186    100    146      0    166    -20    124    -39      0      0      0      0
     11     15     11	    202     70     21     21      1    155      0      0    127      0      4      0      0      0      7      0      0      0      0      0      0      0      0      0      0      0      0      0    147      0      0      0     26    140     14      0    -20      0      0      0      0      0      0      8      0      0      0      0    140      0     19      0      5      0      0      0      0      0     91      0      0      0      0      0      0